p cnf 13 187 
2 5 0 
-2 -5 0 
-2 -3 0 
-2 -6 0 
-2 -3 -6 0 
-3 2 4 7 0 
-3 -2 -4 0 
-3 -2 -7 0 
-3 -4 -7 0 
-4 -3 0 
-5 -9 -6 0 
-5 -9 0 
-5 -6 0 
-6 -2 -5 0 
-6 -2 -7 0 
-6 -2 -10 0 
-6 2 5 7 10 0 
-6 -5 -7 0 
-6 -5 -10 0 
-6 -7 -10 0 
-7 -3 -6 0 
-7 -3 0 
-7 -3 -11 0 
-7 -6 0 
-7 -6 -11 0 
-7 -11 0 
12 7 4 0 
-12 -7 0 
-12 -4 0 
-7 -4 0 
-9 -10 0 
-9 -5 0 
-9 -10 -5 0 
-10 -6 -9 0 
-10 -6 -11 0 
-10 -6 -14 0 
-10 6 9 11 14 0 
-10 -9 -11 0 
-10 -9 -14 0 
-10 -11 -14 0 
-11 -7 -10 0 
-11 -7 -12 0 
-11 -7 -15 0 
-11 7 10 12 15 0 
-11 -10 -12 0 
-11 -10 -15 0 
-11 -12 -15 0 
-12 -16 -11 0 
-12 -16 0 
-12 -11 0 
14 9 0 
-14 -9 0 
-14 -15 0 
-14 -10 0 
-14 -15 -10 0 
-15 14 16 11 0 
-15 -14 -16 0 
-15 -14 -11 0 
-15 -16 -11 0 
-16 15 12 0 
-16 -15 -12 0 
-5 -9 0 
-9 -5 0 
-5 -9 0 
-5 -9 0 
-9 -5 0 
-9 -5 0 
-2 -3 -4 0 
-2 -3 -6 0 
-2 -3 -7 0 
-2 -3 0 
-2 -4 -3 0 
-2 -4 -6 0 
-2 -4 -7 0 
-2 -4 0 
-2 -6 -3 0 
-2 -6 -4 0 
-2 -6 -7 0 
-2 -6 0 
-2 -7 -3 0 
-2 -7 -4 0 
-2 -7 -6 0 
-2 -7 0 
-2 -3 0 
-2 -4 0 
-2 -6 0 
-2 -7 0 
-3 -2 -4 0 
-3 -2 -6 0 
-3 -2 -7 0 
-3 -2 0 
-3 -4 -2 0 
-3 -4 -6 0 
-3 -4 -7 0 
-3 -4 0 
-3 -6 -2 0 
-3 -6 -4 0 
-3 -6 -7 0 
-3 -6 0 
-3 -7 -2 0 
-3 -7 -4 0 
-3 -7 -6 0 
-3 -7 0 
-3 -2 0 
-3 -4 0 
-3 -6 0 
-3 -7 0 
-4 -2 -3 0 
-4 -2 -6 0 
-4 -2 -7 0 
-4 -2 0 
-4 -3 -2 0 
-4 -3 -6 0 
-4 -3 -7 0 
-4 -3 0 
-4 -6 -2 0 
-4 -6 -3 0 
-4 -6 -7 0 
-4 -6 0 
-4 -7 -2 0 
-4 -7 -3 0 
-4 -7 -6 0 
-4 -7 0 
-4 -2 0 
-4 -3 0 
-4 -6 0 
-4 -7 0 
-6 -2 -3 0 
-6 -2 -4 0 
-6 -2 -7 0 
-6 -2 0 
-6 -3 -2 0 
-6 -3 -4 0 
-6 -3 -7 0 
-6 -3 0 
-6 -4 -2 0 
-6 -4 -3 0 
-6 -4 -7 0 
-6 -4 0 
-6 -7 -2 0 
-6 -7 -3 0 
-6 -7 -4 0 
-6 -7 0 
-6 -2 0 
-6 -3 0 
-6 -4 0 
-6 -7 0 
-7 -2 -3 0 
-7 -2 -4 0 
-7 -2 -6 0 
-7 -2 0 
-7 -3 -2 0 
-7 -3 -4 0 
-7 -3 -6 0 
-7 -3 0 
-7 -4 -2 0 
-7 -4 -3 0 
-7 -4 -6 0 
-7 -4 0 
-7 -6 -2 0 
-7 -6 -3 0 
-7 -6 -4 0 
-7 -6 0 
-7 -2 0 
-7 -3 0 
-7 -4 0 
-7 -6 0 
-2 -3 0 
-2 -4 0 
-2 -6 0 
-2 -7 0 
-3 -2 0 
-3 -4 0 
-3 -6 0 
-3 -7 0 
-4 -2 0 
-4 -3 0 
-4 -6 0 
-4 -7 0 
-6 -2 0 
-6 -3 0 
-6 -4 0 
-6 -7 0 
-7 -2 0 
-7 -3 0 
-7 -4 0 
-7 -6 0 
